c CNF
c from Selman's wff generator
p cnf 10  45
-5 4 9 0
-7 4 -9 0
-2 5 10 0
-8 7 3 0
-7 4 -3 0
-1 6 -4 0
4 -9 10 0
-10 7 3 0
-5 -10 -6 0
1 -6 -4 0
9 6 10 0
-1 -7 8 0
-2 10 6 0
6 4 -2 0
-9 -8 3 0
1 -7 2 0
-8 -5 2 0
8 9 7 0
-7 -6 4 0
9 6 4 0
-6 -10 -7 0
4 2 10 0
9 1 2 0
8 -10 -9 0
-2 8 -3 0
-10 8 6 0
4 -7 -5 0
7 -6 -8 0
-9 8 10 0
7 -8 -9 0
8 -2 -9 0
5 -10 4 0
-7 3 -2 0
5 1 9 0
-9 2 7 0
3 -4 -2 0
-8 9 1 0
-4 -7 3 0
-4 9 1 0
6 -5 -8 0
-6 1 4 0
4 -10 2 0
-5 2 -1 0
-9 5 8 0
-10 8 5 0
